DIMENSION: 100
12
82
33
45
68
14
65
78
99
31
57
72
80
76
61
7
75
67
36
74
46
52
8
66
38
81
34
23
42
29
58
22
11
90
89
70
49
98
17
94
97
32
50
1
27
13
79
88
24
41
84
69
15
73
39
91
54
63
16
86
96
64
77
43
71
4
93
44
60
35
51
30
100
2
48
92
19
37
62
53
5
3
83
40
6
59
85
18
25
20
55
87
26
9
10
95
56
21
47
28
